207
22306
72
69
68
136
66
63
62
59
60
57
56
53
54
121
51
48
47
44
45
42
41
39
109
114
202
203
206
207
212
305
215
216
219
218
222
223
226
227
325
232
322
320
394
391
392
393
513
498
382
383
384
499
500
474
438
413
300
294
293
289
196
192
285
188
187
106
36
33
32
30
100
26
27
24
23
20
21
18
17
15
85
12
11
8
9
6
5
3
73
148
241
151
150
155
154
158
159
164
257
256
346
252
343
248
340
452
462
481
541
494
421
351
454
503
477
449
416
358
266
265
168
167
170
175
174
178
179
184
277
276
361
365
420
369
410
443
483
543
760
766
768
828
905
910
998
577
648
646
667
670
581
1013
989
851
821
781
782
776
817
779
798
799
875
874
951
1019
572
1017
957
1024
588
1002
707
708
717
716
679
654
649
997
563
999
644
687
642
562
1008
965
925
805
764
762
811
810
757
755
539
460
491
442
425
403
332
333
240
233
142
